Von Mises Airfoil Data

Center
(-0.17340854149879092+0.09315068493150669j)

Poles
(1+0j)
(-1.2080781627719581+0.05239726027397265j)
(0.05672844480257844-0.46575342465753433j)
(0.15134971796937974+0.4133561643835617j)
